# Solution for model GasLib-40
# Objective value = 4.8089252953503362e+01
loadshed[innode_1] 0
loadshed[innode_2] 0
loadshed[innode_3] 0
loadshed[innode_4] 0
loadshed[innode_5] 0
loadshed[innode_6] 0
loadshed[innode_7] 0
loadshed[innode_8] 0
loadshed[source_1] -1.1097208316838070e-01
loadshed[source_2] 4.9979811501203675e-02
loadshed[source_3] 3.6518082538137930e-01
loadshed[sink_1] 5.7524852253367675e-02
loadshed[sink_2] 0
loadshed[sink_3] 0
loadshed[sink_4] 0
loadshed[sink_5] 0
loadshed[sink_6] 0
loadshed[sink_7] 0
loadshed[sink_8] 0
loadshed[sink_9] 0
loadshed[sink_10] 0
loadshed[sink_11] 0
loadshed[sink_12] 1
loadshed[sink_13] 0
loadshed[sink_14] 0
loadshed[sink_15] 0
loadshed[sink_16] 0
loadshed[sink_17] 0
loadshed[sink_18] 0
loadshed[sink_19] 0
loadshed[sink_20] 0
loadshed[sink_21] 1
loadshed[sink_22] 0
loadshed[sink_23] 0
loadshed[sink_24] 8.8296450031753793e-01
loadshed[sink_25] 0
loadshed[sink_26] 0
loadshed[sink_27] 0
loadshed[sink_28] 0
loadshed[sink_29] 0
flow[source_1,sink_3] 1.7563388523144573e+02
flow[innode_1,sink_16] 1.6354166666666970e+01
flow[innode_6,sink_13] 1.4120427012548646e+01
flow[sink_13,sink_14] -2.2337396541180219e+00
flow[sink_14,sink_10] -1.8587906320784441e+01
flow[sink_25,sink_26] 0
flow[sink_26,sink_9] 67.6188006015208
flow[sink_9,sink_18] 5.1264633934854132e+01
flow[sink_26,sink_4] -8.3972967268187489e+01
flow[sink_4,sink_20] -1.0032713393485409e+02
flow[sink_18,sink_6] 3.4910467268187460e+01
flow[sink_25,innode_8] -1.4292555189810935e+02
flow[sink_6,sink_7] -1.3211261710585603e+01
flow[sink_6,sink_22] 3.1767562312106385e+01
flow[sink_7,sink_24] 1.9140180677235961e+00
flow[sink_22,sink_1] 1.5413395645439717e+01
flow[sink_24,sink_21] 0
flow[sink_21,sink_12] 0
flow[sink_7,sink_5] -3.1479446444975881e+01
flow[sink_5,sink_17] -4.7833613111642592e+01
flow[sink_17,sink_4] 0
flow[sink_17,sink_8] -6.4187779778309263e+01
flow[sink_3,sink_23] 16.3541666666697
flow[sink_8,sink_20] -8.0541946444975935e+01
flow[sink_25,sink_20] 1.9722324704649668e+02
flow[sink_25,sink_15] -8.4772288827603631e+01
flow[sink_15,sink_29] -5.7106791518942032e+01
flow[sink_29,sink_28] 1.6354166666667879e+01
flow[sink_29,sink_2] 6.0373830641994914e+01
flow[sink_2,sink_15] 4.4019663975328285e+01
flow[sink_29,innode_7] -1.5018895549427151e+02
flow[innode_4,sink_19] 3.8121381111542405e+01
flow[sink_19,innode_3] 6.7650406320785237e+01
flow[innode_4,innode_5] 6.2237358542574952e+01
flow[sink_27,innode_5] -6.2237358542574952e+01
flow[sink_27,sink_19] 4.5883191875908210e+01
flow[sink_10,sink_11] 3.2708333333333641e+01
flow[sink_10,innode_2] 0
flow[sink_10,innode_3] -6.7650406320785237e+01
flow[innode_6,sink_25] -1.4120427012548646e+01
flow[sink_11,innode_1] 1.6354166666666970e+01
flow[sink_19,innode_2] 0
flow[source_3,innode_4] 1.0035873965411736e+02
flow[source_2,innode_7] 1.5018895549427151e+02
flow[sink_3,innode_8] 1.4292555189810935e+02
pressure[innode_1] 7.5565638307279556e+01
pressure[innode_2] 7.9468855717338727e+01
pressure[innode_3] 7.9319051553118825e+01
pressure[innode_4] 81.01325
pressure[innode_5] 8.0970439863008338e+01
pressure[innode_6] 7.4912003833038312e+01
pressure[innode_7] 81.01325
pressure[innode_8] 8.0426173016247347e+01
pressure[source_1] 81.01325
pressure[source_2] 81.01325
pressure[source_3] 81.01325
pressure[sink_1] 1.0132500000000002e+00
pressure[sink_2] 7.5466946538923153e+01
pressure[sink_3] 8.0426173016247347e+01
pressure[sink_4] 2.0534119733830668e+01
pressure[sink_5] 1.6296713678694577e+01
pressure[sink_6] 3.0232989394593179e+00
pressure[sink_7] 3.2046580718639266e+00
pressure[sink_8] 2.2281943791012523e+01
pressure[sink_9] 5.8104196082906370e+00
pressure[sink_10] 75.7173396148831
pressure[sink_11] 7.5565638307279556e+01
pressure[sink_12] 1.01325
pressure[sink_13] 74.8341602786607
pressure[sink_14] 7.4838157746044288e+01
pressure[sink_15] 7.5323232037821384e+01
pressure[sink_16] 7.4543988472461876e+01
pressure[sink_17] 1.9859972104225633e+01
pressure[sink_18] 3.9555123576407105e+00
pressure[sink_19] 7.9468855717338727e+01
pressure[sink_20] 2.7894584775004269e+01
pressure[sink_21] 1.01325
pressure[sink_22] 2.0158259796093283e+00
pressure[sink_23] 8.0261455004587560e+01
pressure[sink_24] 1.01325
pressure[sink_25] 7.4912003833038312e+01
pressure[sink_26] 9.8575793436119561e+00
pressure[sink_27] 8.0453984789378040e+01
pressure[sink_28] 7.6701001531468236e+01
pressure[sink_29] 7.6996283805085426e+01
interdiction[source_1,sink_3] 0
interdiction[innode_1,sink_16] 0
interdiction[innode_6,sink_13] 0
interdiction[sink_13,sink_14] 0
interdiction[sink_14,sink_10] 0
interdiction[sink_25,sink_26] 1
interdiction[sink_26,sink_9] 0
interdiction[sink_9,sink_18] 0
interdiction[sink_26,sink_4] 0
interdiction[sink_4,sink_20] 0
interdiction[sink_18,sink_6] 0
interdiction[sink_25,innode_8] 0
interdiction[sink_6,sink_7] 0
interdiction[sink_6,sink_22] 0
interdiction[sink_7,sink_24] 0
interdiction[sink_22,sink_1] 0
interdiction[sink_24,sink_21] 0
interdiction[sink_21,sink_12] 0
interdiction[sink_7,sink_5] 0
interdiction[sink_5,sink_17] 0
interdiction[sink_17,sink_4] 1
interdiction[sink_17,sink_8] 0
interdiction[sink_3,sink_23] 0
interdiction[sink_8,sink_20] 0
interdiction[sink_25,sink_20] 0
interdiction[sink_25,sink_15] 0
interdiction[sink_15,sink_29] 0
interdiction[sink_29,sink_28] 0
interdiction[sink_29,sink_2] 0
interdiction[sink_2,sink_15] 0
interdiction[sink_29,innode_7] 0
interdiction[innode_4,sink_19] 0
interdiction[sink_19,innode_3] 0
interdiction[innode_4,innode_5] 0
interdiction[sink_27,innode_5] 0
interdiction[sink_27,sink_19] 0
interdiction[sink_10,sink_11] 0
interdiction[sink_10,innode_2] 1
interdiction[sink_10,innode_3] 0
interdiction[innode_6,sink_25] 0
interdiction[sink_11,innode_1] 0
interdiction[sink_19,innode_2] 0
interdiction[source_3,innode_4] 0
interdiction[source_2,innode_7] 0
interdiction[sink_3,innode_8] 0
WCcheckFlow[source_1,sink_3] 39
WCcheckFlow[innode_1,sink_16] 1
WCcheckFlow[innode_6,sink_13] 13
WCcheckFlow[sink_13,sink_14] 12
WCcheckFlow[sink_14,sink_10] 11
WCcheckFlow[sink_25,sink_26] 0
WCcheckFlow[sink_26,sink_9] 12
WCcheckFlow[sink_9,sink_18] 11
WCcheckFlow[sink_26,sink_4] -13
WCcheckFlow[sink_4,sink_20] -14
WCcheckFlow[sink_18,sink_6] 10
WCcheckFlow[sink_25,innode_8] -36
WCcheckFlow[sink_6,sink_7] 7
WCcheckFlow[sink_6,sink_22] 2
WCcheckFlow[sink_7,sink_24] 3
WCcheckFlow[sink_22,sink_1] 1
WCcheckFlow[sink_24,sink_21] 2
WCcheckFlow[sink_21,sink_12] 1
WCcheckFlow[sink_7,sink_5] 3
WCcheckFlow[sink_5,sink_17] 2
WCcheckFlow[sink_17,sink_4] 0
WCcheckFlow[sink_17,sink_8] 1
WCcheckFlow[sink_3,sink_23] 1
WCcheckFlow[sink_8,sink_20] 0
WCcheckFlow[sink_25,sink_20] 15
WCcheckFlow[sink_25,sink_15] 6
WCcheckFlow[sink_15,sink_29] 5
WCcheckFlow[sink_29,sink_28] 1
WCcheckFlow[sink_29,sink_2] 1
WCcheckFlow[sink_2,sink_15] 0
WCcheckFlow[sink_29,innode_7] 2
WCcheckFlow[innode_4,sink_19] -4
WCcheckFlow[sink_19,innode_3] -6
WCcheckFlow[innode_4,innode_5] 2
WCcheckFlow[sink_27,innode_5] -1
WCcheckFlow[sink_27,sink_19] 0
WCcheckFlow[sink_10,sink_11] 3
WCcheckFlow[sink_10,innode_2] 0
WCcheckFlow[sink_10,innode_3] 7
WCcheckFlow[innode_6,sink_25] -14
WCcheckFlow[sink_11,innode_1] 2
WCcheckFlow[sink_19,innode_2] 1
WCcheckFlow[source_3,innode_4] -1
WCcheckFlow[source_2,innode_7] -1
WCcheckFlow[sink_3,innode_8] 37
